(set-logic QF_BV)
(declare-fun x0 () (_ BitVec 32))
(assert (let ( (?v_13 (bvsdiv (bvadd (_ bv0 32) (_ bv180000000 32)) x0))) (let ((?v_49 (bvsub ?v_13 (_ bv0 32)))) (and true (bvult (_ bv0 32) (bvadd (_ bv0 32) ?v_49)) true))))
(check-sat)
(exit)
